(set-info :smt-lib-version 2.6)
(set-logic QF_UFLRA)
(set-info :source |
MathSat group

|)
(set-info :category "random")
(set-info :status unsat)
(declare-fun x0 () Real)
(declare-fun x1 () Real)
(declare-fun x2 () Real)
(declare-fun x3 () Real)
(declare-fun x4 () Real)
(declare-fun x5 () Real)
(declare-fun x6 () Real)
(declare-fun x7 () Real)
(declare-fun x8 () Real)
(declare-fun x9 () Real)
(declare-fun x10 () Real)
(declare-fun x11 () Real)
(declare-fun x12 () Real)
(declare-fun x13 () Real)
(declare-fun x14 () Real)
(declare-fun x15 () Real)
(declare-fun x16 () Real)
(declare-fun x17 () Real)
(declare-fun x18 () Real)
(declare-fun x19 () Real)
(declare-fun x20 () Real)
(declare-fun x21 () Real)
(declare-fun x22 () Real)
(declare-fun x23 () Real)
(declare-fun x24 () Real)
(declare-fun x25 () Real)
(declare-fun x26 () Real)
(declare-fun x27 () Real)
(declare-fun x28 () Real)
(declare-fun x29 () Real)
(declare-fun f0_1 (Real) Real)
(declare-fun f0_2 (Real Real) Real)
(declare-fun f0_3 (Real Real Real) Real)
(declare-fun f0_4 (Real Real Real Real) Real)
(declare-fun P0 () Bool)
(declare-fun P1 () Bool)
(declare-fun P2 () Bool)
(declare-fun P3 () Bool)
(declare-fun P4 () Bool)
(declare-fun P5 () Bool)
(declare-fun P6 () Bool)
(declare-fun P7 () Bool)
(declare-fun P8 () Bool)
(declare-fun P9 () Bool)
(declare-fun P10 () Bool)
(declare-fun P11 () Bool)
(declare-fun P12 () Bool)
(declare-fun P13 () Bool)
(declare-fun P14 () Bool)
(declare-fun P15 () Bool)
(declare-fun P16 () Bool)
(declare-fun P17 () Bool)
(declare-fun P18 () Bool)
(declare-fun P19 () Bool)
(declare-fun P20 () Bool)
(declare-fun P21 () Bool)
(declare-fun P22 () Bool)
(declare-fun P23 () Bool)
(declare-fun P24 () Bool)
(declare-fun P25 () Bool)
(declare-fun P26 () Bool)
(declare-fun P27 () Bool)
(declare-fun P28 () Bool)
(declare-fun P29 () Bool)
(assert (let ((?v_36 (distinct (- (+ (* 3 x16) (* 31 x14)) (* 14 x22)) 40)) (?v_109 (<= (+ (- (* 13 x10) (* 32 x25)) (* 30 x5)) 35)) (?v_34 (<= (- (+ (* 11 x15) (* 4 x22)) (* 40 x19)) 42)) (?v_77 (distinct (+ (- (* 32 x12) (* 23 x20)) (* 42 x28)) 14)) (?v_66 (< (- (- (* 2 x7) (* 9 x7)) (* 36 x25)) 31)) (?v_113 (distinct (- (- (* 14 x15) (* 14 x4)) (* 3 x2)) 0)) (?v_68 (distinct (- (+ (* 3 x21) (* 28 x20)) (* 21 x2)) 2)) (?v_143 (= (+ (- (* 40 x10) (* 11 x2)) (* 2 x11)) 28)) (?v_1 (distinct x15 x26)) (?v_96 (= x2 (f0_2 x28 x5))) (?v_52 (= (f0_1 x8) (f0_1 x12))) (?v_121 (distinct (f0_1 x11) (f0_1 x26))) (?v_32 (f0_1 x25))) (let ((?v_20 (= ?v_32 (f0_2 x19 x7))) (?v_117 (distinct (f0_2 x25 x12) x25)) (?v_37 (f0_1 x27))) (let ((?v_54 (= (f0_2 x23 x2) ?v_37)) (?v_24 (= x25 (f0_2 x21 x16))) (?v_11 (distinct (f0_1 x28) x16)) (?v_75 (f0_1 x18))) (let ((?v_123 (= ?v_75 (f0_2 x6 x22))) (?v_16 (= x8 (f0_2 x25 x2))) (?v_120 (distinct (f0_2 x22 x9) x8)) (?v_64 (= x13 (f0_2 x14 x22))) (?v_44 (distinct (f0_1 x7) x7)) (?v_29 (= (f0_1 x19) (f0_2 x19 x20))) (?v_2 (distinct (f0_1 x5) ?v_37)) (?v_151 (= (f0_2 x7 x5) (f0_1 x13))) (?v_81 (distinct (f0_1 x17) x4)) (?v_71 (distinct (f0_2 x20 x18) (f0_2 x11 x9))) (?v_5 (f0_1 x6))) (let ((?v_7 (distinct (f0_2 x24 x17) ?v_5)) (?v_63 (distinct (f0_1 x1) x8)) (?v_133 (distinct (f0_1 x21) x0)) (?v_91 (= x4 x4)) (?v_6 (= (f0_2 x18 x2) x6)) (?v_50 (distinct ?v_32 x1)) (?v_82 (distinct (f0_2 x0 x7) x24)) (?v_3 (f0_1 x14))) (let ((?v_45 (= ?v_5 ?v_3)) (?v_25 (= ?v_3 ?v_75)) (?v_55 (= x0 (f0_2 x5 x9))) (?v_112 (distinct (f0_2 x29 x4) ?v_3)) (?v_4 (not P0))) (let ((?v_85 (not ?v_45)) (?v_58 (not ?v_77)) (?v_10 (not ?v_29)) (?v_89 (not P6)) (?v_76 (not ?v_1)) (?v_92 (not P19)) (?v_78 (not ?v_55)) (?v_134 (not P3)) (?v_39 (not ?v_6)) (?v_17 (not P7)) (?v_118 (not ?v_7)) (?v_51 (not ?v_71)) (?v_57 (not ?v_133)) (?v_153 (not P22)) (?v_98 (not P25)) (?v_106 (not P27)) (?v_69 (not P29)) (?v_35 (not ?v_11)) (?v_18 (not P21)) (?v_14 (not P18)) (?v_90 (not ?v_112)) (?v_59 (not ?v_20)) (?v_28 (not P9)) (?v_61 (not P13)) (?v_23 (not ?v_16)) (?v_100 (not P4)) (?v_67 (not P15)) (?v_72 (not P14)) (?v_108 (not P23)) (?v_26 (not ?v_24)) (?v_140 (not P20)) (?v_47 (not ?v_25)) (?v_101 (not ?v_64)) (?v_65 (not ?v_2)) (?v_73 (not ?v_34)) (?v_56 (not ?v_36)) (?v_79 (not P2)) (?v_88 (not P17)) (?v_119 (not P28)) (?v_40 (not P11)) (?v_103 (not P8)) (?v_114 (not ?v_44)) (?v_138 (not P24)) (?v_70 (not ?v_52)) (?v_95 (not ?v_109)) (?v_74 (not P10)) (?v_80 (not ?v_63)) (?v_83 (not ?v_96)) (?v_99 (not ?v_68)) (?v_122 (not ?v_151)) (?v_94 (not P1)) (?v_136 (not ?v_120)) (?v_111 (not ?v_50)) (?v_130 (not ?v_66)) (?v_102 (not P26))) (let ((?v_154 (or ?v_68 ?v_102)) (?v_126 (not ?v_54)) (?v_132 (not ?v_82)) (?v_107 (not ?v_91)) (?v_110 (not ?v_143)) (?v_137 (not P16)) (?v_128 (not ?v_81)) (?v_127 (not ?v_117)) (?v_131 (not ?v_123)) (?v_147 (not ?v_121)) (?v_148 (not P5)) (?v_156 (not ?v_113)) (?v_150 (not P12)) (?v_38 (= (+ (* 6 x23) (* 26 x14) (* 6 x14)) 31)) (?v_49 (<= (+ (* 27 x11) (* 17 x21) (* 11 x10)) 7))) (let ((?v_87 (not ?v_38)) (?v_142 (= (+ (* 11 x9) (* 26 x5) (* 30 x29)) 24)) (?v_115 (not ?v_49))) (let ((?v_152 (not ?v_142)) (?v_104 (<= (+ (* (- 42) x15) (* 28 x8) (* 15 x14)) (- 40)))) (let ((?v_15 (not ?v_104)) (?v_0 (<= (- (+ (* (- 26) x0) (* 5 x12)) (* 35 x2)) (- 41)))) (let ((?v_155 (or ?v_0 ?v_2)) (?v_97 (= (+ (* (- 31) x6) (* 14 x8) (* 24 x1)) 0)) (?v_8 (< (+ (- (* (- 36) x2) (* 6 x22)) (* 14 x2)) (- 30))) (?v_19 (<= (+ (* (- 35) x8) (* 6 x24) (* 2 x27)) (- 41)))) (let ((?v_105 (not ?v_19)) (?v_43 (< (+ (* (- 24) x6) (* 18 x21) (* 34 x9)) 14))) (let ((?v_139 (not ?v_43)) (?v_46 (< (- (- (* 35 x8) 0) (* 11 x29)) (- 43)))) (let ((?v_21 (not ?v_46)) (?v_13 (<= (- (- (* 5 x0) (* 35 x5)) (* 22 x27)) (- 21)))) (let ((?v_22 (not ?v_13)) (?v_145 (not ?v_8)) (?v_30 (< (+ (* (- 38) x28) (* 18 x15) (* 29 x13)) 27)) (?v_27 (< (+ (* (- 25) x8) (* 36 x16) (* 13 x17)) (- 43)))) (let ((?v_124 (not ?v_27)) (?v_12 (<= (+ (- (* 7 x2) (* 18 x9)) (* 39 x19)) (- 22))) (?v_9 (distinct (+ (* (- 6) x27) (* 39 x28) (* 20 x7)) (- 35)))) (let ((?v_53 (not ?v_12)) (?v_41 (< (- (* 5 x29) (* 37 x28)) (- 16))) (?v_84 (< (+ (- (* 13 x12) (* 41 x29)) (* 41 x18)) (- 19))) (?v_33 (<= (- (+ (* (- 34) x18) (* 21 x4)) (* 17 x7)) (- 40)))) (let ((?v_31 (not ?v_33)) (?v_42 (not ?v_30)) (?v_48 (< (- (- (* (- 31) x23) x4) (* 5 x3)) (- 6)))) (let ((?v_62 (not ?v_48)) (?v_141 (= (- (- (* (- 11) x26) (* 17 x23)) (* 23 x4)) (- 4)))) (let ((?v_135 (not ?v_141)) (?v_60 (not ?v_9)) (?v_86 (< (+ (* 2 x6) (* 40 x23) (* 29 x5)) (- 23)))) (let ((?v_93 (not ?v_86)) (?v_129 (not ?v_97)) (?v_116 (not ?v_41)) (?v_125 (not ?v_0)) (?v_149 (not ?v_84)) (?v_144 (< (+ (- 0 (* 10 x1)) (* 16 x8)) (- 28)))) (let ((?v_146 (not ?v_144))) (and (and (and (and (and (and (and (and (and (and (and (and (and (and (and (and (and (and (and (and (and (and (and (and (and (and (and (and (and (and (and (and (and (and (and (and (and (and (and (and (and (and (and (and (and (and (and (and (and (and (and (and (and (and (and (and (and (and (and (and (and (and (and (and (and (and (and (and (and (and (and (and (and (and (and (and (and (and (and (and (and (and (and (and (and (and (and (and (and (and (and (and (and (and (and (and (and (and (and (and (and (and (and (and (and (and (and (and (and (and (and (and (and (and (and (and (and (and (and (and (and (and (and (and (and (and (and (and (and (and (and (and (and (and (and (and (and (and (and (and (and (and (and (and (and (and (and (and (and (and (and (and (and (and (and (and (and (and (and (and (and (and (and (and (and (and (and (and (and (and (and (and (and (and (and (and (and (and (and (and (and (and (and (and (and (and (and (and (and (and (and (and (and (and (and (and (and (and (and (and (and (and (and (and (and (and (and (and (and (and (and (and (and (and (and (and (and (and (and (and (and (and (and (and (and (and (and (and (and (and (and (and (and (and (and (and (and (and (and (and (and (and (and (and (and (and (and (and (and (and (and (and (and (and (and (and (and (and (and (and (and (and (and (and (and (and (and (and (and (and (and (and (and (and (and (and (and (and (and (and (and (and (and (and (and (and (and (and (and (and (and (and (and (and (and (and (and (and (and (and (and (and (and (and (and (and (and (and (and (and (and (and (and (and (and (and (and (and (and (and (and (and (and (and (and (and (and (and (and (and (and (and (and (and (and (and (and (and (and (and (and (and (and (and (and (and (and (and (and (and (and (and (and (and (and (and (and (and (and (and (and (and (and (and (and (and (and (and (and (and (and (and (and (and (and (and (and (and (and (and (and (and (and (and (and (and (and (and (and (and (and (and (and (and (and (and (and (and (and (and (and (and (and (and (and (and (and (and (and (and (and (and (and (and (and (and (and (and (and (and (and (and (and (and (and (and (and (and (and (and (and (and (and (and (and (and (and (and (and (and (and (and (and (and (and (and (and (and (and (or (or ?v_4 ?v_15) ?v_85) (or (or ?v_0 ?v_1) P12)) (or (or ?v_58 P1) ?v_10)) (or ?v_155 ?v_16)) (or (or ?v_89 ?v_76) P17)) (or (or ?v_1 ?v_97) ?v_92)) (or (or ?v_78 P5) ?v_36)) (or (or ?v_2 ?v_8) ?v_25)) (or (or ?v_105 ?v_139) ?v_134)) (or (or P12 ?v_38) ?v_66)) (or (or ?v_39 P25) ?v_21)) (or (or ?v_4 ?v_17) ?v_118)) (or (or ?v_51 P4) ?v_57)) (or (or ?v_153 ?v_98) ?v_6)) (or (or P0 P14) ?v_7)) (or (or ?v_22 ?v_145) ?v_106)) (or (or ?v_69 ?v_35) ?v_30)) (or (or P4 ?v_124) P6)) (or (or ?v_12 ?v_18) ?v_9)) (or (or ?v_14 ?v_9) ?v_10)) (or (or P27 ?v_90) ?v_11)) (or (or ?v_53 ?v_24) ?v_59)) (or (or ?v_28 ?v_13) ?v_14)) (or (or ?v_61 ?v_7) ?v_15)) (or (or ?v_23 ?v_17) ?v_34)) (or (or ?v_41 ?v_100) ?v_18)) (or (or ?v_67 ?v_72) P17)) (or (or ?v_19 ?v_44) ?v_20)) (or (or ?v_21 ?v_91) ?v_22)) (or (or ?v_23 ?v_14) ?v_52)) (or (or ?v_108 ?v_26) ?v_140)) (or (or ?v_47 ?v_8) ?v_19)) (or (or ?v_101 ?v_7) ?v_84)) (or (or ?v_49 ?v_26) ?v_27)) (or (or ?v_31 ?v_28) P24)) (or (or ?v_29 ?v_65) P12)) (or (or P2 ?v_42) ?v_31)) (or (or ?v_50 ?v_33) P20)) (or (or P3 ?v_73) ?v_35)) (or (or ?v_56 ?v_54) ?v_79)) (or (or ?v_87 ?v_39) ?v_88)) (or (or P13 ?v_119) ?v_40)) (or (or ?v_40 ?v_81) ?v_16)) (or (or ?v_48 ?v_103) ?v_41)) (or (or ?v_42 ?v_43) ?v_114)) (or (or ?v_45 ?v_46) ?v_7)) (or (or ?v_82 ?v_47) P11)) (or (or ?v_62 P23) ?v_49)) (or (or ?v_138 ?v_0) ?v_135)) (or (or ?v_50 ?v_60) P25)) (or (or P24 ?v_33) ?v_51)) (or (or ?v_41 ?v_44) ?v_10)) (or (or P28 P17) ?v_117)) (or (or P2 ?v_93) P27)) (or (or ?v_50 ?v_142) ?v_2)) (or (or P2 ?v_22) ?v_70)) (or (or ?v_53 P10) ?v_41)) (or (or P28 ?v_54) ?v_53)) (or (or ?v_41 ?v_16) ?v_55)) (or (or ?v_0 ?v_35) ?v_56)) (or (or ?v_68 P16) ?v_21)) (or (or P23 ?v_57) ?v_13)) (or (or P1 ?v_58) P29)) (or (or ?v_20 ?v_63) ?v_25)) (or (or ?v_4 ?v_95) ?v_1)) (or (or P12 ?v_74) ?v_59)) (or (or ?v_60 ?v_61) ?v_62)) (or (or ?v_24 ?v_59) ?v_8)) (or (or ?v_80 ?v_19) ?v_16)) (or (or P2 ?v_64) ?v_65)) (or (or ?v_18 ?v_20) ?v_66)) (or (or ?v_58 ?v_43) ?v_83)) (or (or ?v_67 ?v_99) ?v_58)) (or (or ?v_69 ?v_122) P15)) (or (or ?v_19 ?v_69) ?v_113)) (or (or ?v_70 ?v_60) P27)) (or (or ?v_39 ?v_10) ?v_71)) (or (or ?v_72 ?v_48) ?v_6)) (or (or P28 ?v_121) ?v_73)) (or (or ?v_74 ?v_67) ?v_53)) (or (or ?v_55 ?v_123) ?v_76)) (or (or ?v_77 P14) P28)) (or (or ?v_78 ?v_79) ?v_80)) (or (or ?v_25 ?v_81) ?v_82)) (or (or ?v_81 P10) ?v_83)) (or (or ?v_84 ?v_13) ?v_41)) (or (or ?v_85 ?v_47) ?v_10)) (or (or ?v_94 ?v_9) ?v_18)) (or (or ?v_136 ?v_59) ?v_38)) (or (or ?v_56 ?v_30) ?v_20)) (or (or ?v_86 P14) ?v_0)) (or (or ?v_87 ?v_34) ?v_1)) (or (or ?v_51 ?v_63) ?v_87)) (or (or ?v_88 ?v_62) ?v_29)) (or (or ?v_25 ?v_89) ?v_52)) (or (or ?v_71 ?v_14) P24)) (or (or P0 ?v_13) P1)) (or (or ?v_19 ?v_85) ?v_35)) (or (or ?v_1 ?v_90) ?v_86)) (or (or ?v_91 ?v_111) ?v_15)) (or (or P1 ?v_92) ?v_48)) (or (or P8 ?v_130) ?v_58)) (or ?v_154 ?v_43)) (or (or ?v_93 ?v_80) P15)) (or (or ?v_16 ?v_94) ?v_74)) (or (or P8 P16) ?v_48)) (or (or ?v_67 ?v_95) ?v_96)) (or (or ?v_95 ?v_66) ?v_129)) (or (or ?v_46 ?v_126) ?v_98)) (or (or ?v_99 P29) ?v_132)) (or (or ?v_100 ?v_83) ?v_101)) (or (or ?v_59 ?v_52) ?v_87)) (or (or ?v_95 ?v_102) ?v_103)) (or (or ?v_104 ?v_23) P1)) (or (or ?v_82 ?v_58) P19)) (or (or ?v_107 ?v_105) ?v_44)) (or (or ?v_106 ?v_110) ?v_107)) (or (or ?v_23 ?v_20) ?v_108)) (or (or ?v_16 ?v_103) P22)) (or (or ?v_109 ?v_61) ?v_115)) (or (or ?v_79 ?v_116) ?v_110)) (or (or ?v_82 ?v_17) ?v_26)) (or (or ?v_23 ?v_111) ?v_26)) (or (or ?v_84 ?v_108) ?v_46)) (or (or P9 ?v_100) P10)) (or (or ?v_98 ?v_20) ?v_9)) (or (or ?v_77 P25) ?v_29)) (or (or ?v_14 ?v_108) ?v_84)) (or (or P19 ?v_103) ?v_137)) (or (or ?v_82 P3) ?v_94)) (or (or ?v_62 ?v_49) ?v_9)) (or (or ?v_80 ?v_58) ?v_39)) (or (or ?v_12 ?v_96) P21)) (or (or ?v_17 ?v_34) P29)) (or (or P13 P5) ?v_74)) (or (or ?v_98 ?v_112) ?v_113)) (or (or ?v_125 P22) ?v_149)) (or (or ?v_10 ?v_107) ?v_114)) (or (or ?v_6 ?v_76) ?v_112)) (or (or ?v_43 ?v_77) ?v_47)) (or (or P16 P25) ?v_89)) (or (or ?v_45 ?v_64) ?v_115)) (or (or ?v_128 ?v_116) ?v_117)) (or (or ?v_0 ?v_18) ?v_40)) (or (or ?v_66 ?v_34) ?v_53)) (or (or ?v_118 P16) ?v_59)) (or (or ?v_49 ?v_91) P28)) (or (or ?v_71 P27) ?v_70)) (or (or P25 ?v_63) ?v_1)) (or (or ?v_15 ?v_102) P14)) (or (or ?v_13 ?v_43) ?v_10)) (or (or ?v_51 ?v_84) ?v_89)) (or (or ?v_119 ?v_78) ?v_49)) (or (or ?v_1 ?v_80) ?v_58)) (or (or P14 ?v_118) ?v_127)) (or (or ?v_2 ?v_39) ?v_91)) (or (or P9 ?v_120) ?v_23)) (or (or ?v_86 ?v_49) P25)) (or (or ?v_20 P15) P3)) (or (or ?v_50 ?v_85) ?v_18)) (or (or P19 ?v_121) ?v_47)) (or (or ?v_35 ?v_65) ?v_41)) (or (or ?v_112 ?v_24) ?v_122)) (or (or ?v_82 P8) ?v_1)) (or (or ?v_105 ?v_67) ?v_63)) (or (or ?v_131 ?v_61) ?v_63)) (or (or ?v_124 ?v_35) ?v_125)) (or (or ?v_96 ?v_76) ?v_126)) (or (or ?v_57 P20) ?v_91)) (or (or ?v_71 ?v_0) ?v_127)) (or (or ?v_44 ?v_79) ?v_72)) (or (or ?v_122 ?v_9) ?v_128)) (or (or ?v_77 ?v_15) P13)) (or (or ?v_89 ?v_70) ?v_112)) (or (or ?v_26 P6) P27)) (or (or ?v_129 ?v_67) P5)) (or (or P8 ?v_66) ?v_97)) (or (or ?v_61 ?v_13) ?v_17)) (or (or ?v_6 ?v_122) ?v_16)) (or (or ?v_126 ?v_130) P22)) (or (or ?v_68 ?v_124) P13)) (or (or P3 ?v_131) ?v_132)) (or (or P14 ?v_76) ?v_61)) (or (or ?v_10 ?v_116) ?v_133)) (or (or P2 ?v_134) ?v_80)) (or (or ?v_123 ?v_135) P3)) (or (or ?v_10 ?v_144) ?v_19)) (or (or ?v_71 ?v_136) ?v_52)) (or (or P16 ?v_118) P13)) (or (or ?v_42 ?v_130) ?v_85)) (or (or ?v_106 P1) ?v_22)) (or (or ?v_137 ?v_12) ?v_67)) (or (or ?v_51 P20) ?v_81)) (or (or ?v_104 ?v_97) ?v_100)) (or (or ?v_47 ?v_35) ?v_84)) (or (or ?v_4 ?v_57) ?v_91)) (or (or ?v_81 ?v_122) ?v_77)) (or (or ?v_15 ?v_54) ?v_46)) (or (or ?v_107 ?v_130) ?v_61)) (or (or ?v_101 ?v_20) ?v_78)) (or (or ?v_65 ?v_23) P7)) (or (or ?v_138 ?v_131) ?v_139)) (or (or ?v_111 P2) ?v_126)) (or (or ?v_140 ?v_60) ?v_147)) (or (or P12 ?v_27) ?v_79)) (or (or ?v_49 ?v_139) ?v_120)) (or (or ?v_137 P27) ?v_22)) (or (or P14 ?v_78) ?v_110)) (or (or ?v_69 ?v_34) ?v_20)) (or (or ?v_20 ?v_56) ?v_14)) (or (or ?v_17 ?v_25) P8)) (or (or ?v_59 P8) ?v_86)) (or (or P14 ?v_133) ?v_31)) (or (or ?v_128 ?v_121) ?v_42)) (or (or P12 ?v_7) ?v_141)) (or (or ?v_99 ?v_76) ?v_15)) (or (or ?v_8 ?v_43) ?v_108)) (or (or P11 ?v_76) ?v_108)) (or (or P27 P4) ?v_35)) (or (or ?v_69 ?v_102) ?v_55)) (or (or ?v_70 ?v_130) P0)) (or (or ?v_44 ?v_46) ?v_17)) (or (or ?v_50 ?v_90) ?v_142)) (or (or ?v_92 ?v_46) P27)) (or (or P10 ?v_133) ?v_80)) (or (or P7 ?v_92) ?v_119)) (or (or ?v_58 ?v_14) ?v_88)) (or (or ?v_16 ?v_109) ?v_74)) (or (or ?v_126 ?v_94) P0)) (or (or ?v_89 ?v_93) ?v_80)) (or (or ?v_88 ?v_128) ?v_91)) (or (or ?v_84 ?v_148) ?v_143)) (or (or ?v_43 ?v_26) ?v_48)) (or (or ?v_144 ?v_2) ?v_123)) (or (or ?v_116 ?v_115) ?v_85)) (or (or ?v_145 ?v_138) ?v_118)) (or (or ?v_42 ?v_50) ?v_127)) (or (or ?v_21 ?v_85) P22)) (or (or ?v_91 ?v_99) P13)) (or (or ?v_145 ?v_111) ?v_84)) (or (or ?v_122 P14) ?v_64)) (or (or ?v_21 ?v_56) ?v_9)) (or (or P12 ?v_111) ?v_20)) (or (or ?v_88 ?v_136) ?v_140)) (or (or ?v_96 ?v_146) ?v_95)) (or (or ?v_41 ?v_137) ?v_146)) (or (or ?v_17 ?v_112) ?v_133)) (or (or ?v_50 ?v_117) ?v_87)) (or (or ?v_16 P22) ?v_52)) (or (or ?v_59 ?v_81) ?v_85)) (or (or P19 ?v_54) ?v_110)) (or (or ?v_28 ?v_17) ?v_114)) (or (or P8 ?v_110) ?v_82)) (or (or ?v_156 ?v_119) ?v_0)) (or (or ?v_20 ?v_59) ?v_143)) (or (or ?v_84 ?v_27) ?v_93)) (or (or ?v_136 ?v_34) ?v_138)) (or (or ?v_111 ?v_74) ?v_120)) (or (or ?v_26 ?v_147) ?v_60)) (or (or ?v_124 P20) ?v_118)) (or (or ?v_132 ?v_18) ?v_131)) (or (or ?v_94 ?v_6) P0)) (or (or ?v_128 ?v_108) ?v_20)) (or (or ?v_82 ?v_67) P14)) (or (or ?v_95 ?v_68) ?v_135)) (or (or ?v_21 ?v_101) ?v_107)) (or (or P13 ?v_71) ?v_106)) (or (or ?v_67 ?v_71) ?v_148)) (or (or ?v_137 ?v_88) ?v_116)) (or (or ?v_148 ?v_105) ?v_33)) (or (or ?v_145 ?v_98) P0)) (or (or ?v_90 P3) ?v_35)) (or (or P3 ?v_149) ?v_33)) (or (or ?v_64 ?v_45) P21)) (or (or ?v_144 ?v_136) ?v_0)) (or (or ?v_150 ?v_107) P24)) (or (or ?v_140 ?v_113) P22)) (or (or P12 ?v_95) ?v_135)) (or (or ?v_123 ?v_99) ?v_17)) (or (or ?v_118 ?v_84) ?v_134)) (or (or ?v_129 P8) ?v_116)) (or (or ?v_50 ?v_16) ?v_144)) (or (or ?v_105 ?v_10) ?v_85)) (or (or ?v_96 ?v_113) P23)) (or (or ?v_100 ?v_64) ?v_93)) (or (or ?v_23 ?v_56) P19)) (or (or ?v_17 ?v_31) ?v_29)) (or (or P27 ?v_25) ?v_141)) (or (or ?v_49 ?v_61) ?v_96)) (or (or ?v_28 ?v_52) ?v_117)) (or (or ?v_123 ?v_86) ?v_41)) (or (or ?v_92 ?v_113) ?v_73)) (or (or ?v_150 ?v_52) ?v_42)) (or (or ?v_26 ?v_102) ?v_52)) (or (or ?v_43 ?v_129) ?v_81)) (or (or ?v_45 ?v_130) ?v_96)) (or (or ?v_91 ?v_101) P11)) (or (or ?v_50 ?v_95) ?v_2)) (or (or ?v_56 ?v_105) ?v_71)) (or (or ?v_15 ?v_130) P9)) (or (or ?v_96 ?v_69) ?v_25)) (or (or ?v_94 ?v_45) ?v_118)) (or (or ?v_10 ?v_142) ?v_109)) (or (or ?v_149 ?v_20) ?v_19)) (or (or P28 ?v_148) ?v_96)) (or (or ?v_137 ?v_151) ?v_19)) (or (or ?v_49 ?v_17) ?v_65)) (or (or ?v_70 ?v_2) ?v_34)) (or (or ?v_68 P3) ?v_81)) (or (or P11 ?v_52) ?v_135)) (or (or ?v_71 ?v_143) P13)) (or (or P29 ?v_71) ?v_99)) (or (or ?v_64 ?v_39) P17)) (or (or ?v_140 ?v_136) ?v_38)) (or (or ?v_104 ?v_1) ?v_148)) (or (or P6 ?v_86) P5)) (or (or ?v_112 ?v_147) ?v_152)) (or (or P12 ?v_10) ?v_48)) (or (or ?v_56 ?v_55) ?v_57)) (or (or P1 ?v_19) ?v_83)) (or (or ?v_16 ?v_119) ?v_137)) (or (or P13 ?v_57) ?v_79)) (or (or P3 ?v_94) ?v_74)) (or (or ?v_71 ?v_58) P16)) (or (or P19 ?v_15) ?v_52)) (or (or ?v_124 ?v_8) P28)) (or (or ?v_94 ?v_79) ?v_61)) (or (or ?v_107 ?v_89) P29)) (or (or ?v_132 ?v_12) ?v_152)) (or (or P9 ?v_69) ?v_151)) (or (or ?v_38 ?v_22) P25)) (or (or ?v_8 ?v_8) P5)) (or (or ?v_114 ?v_101) ?v_149)) (or (or ?v_93 ?v_64) ?v_139)) (or (or ?v_62 P25) P12)) (or (or ?v_148 ?v_140) ?v_141)) (or (or ?v_24 P24) ?v_96)) (or (or ?v_112 ?v_124) ?v_13)) (or (or ?v_56 ?v_67) ?v_77)) (or (or ?v_102 ?v_127) ?v_59)) (or (or ?v_76 ?v_65) ?v_52)) (or (or ?v_107 ?v_44) ?v_21)) (or (or ?v_44 ?v_85) ?v_67)) (or (or ?v_90 ?v_56) ?v_20)) (or (or ?v_136 ?v_2) ?v_144)) (or (or ?v_58 ?v_102) ?v_117)) (or (or ?v_35 ?v_136) ?v_115)) (or (or ?v_39 ?v_44) ?v_46)) (or (or ?v_16 P5) P27)) (or (or ?v_128 ?v_103) P16)) (or (or P4 ?v_152) ?v_41)) (or (or ?v_79 ?v_47) ?v_117)) (or (or ?v_100 ?v_15) P18)) (or (or ?v_52 ?v_132) ?v_98)) (or (or ?v_0 ?v_153) ?v_60)) (or (or P20 ?v_11) P23)) (or (or ?v_9 P1) ?v_125)) (or (or ?v_22 ?v_65) ?v_44)) (or (or ?v_2 ?v_53) P1)) (or (or ?v_40 ?v_105) ?v_15)) (or (or ?v_0 ?v_139) ?v_143)) (or (or ?v_17 P13) ?v_11)) (or (or ?v_142 P10) ?v_95)) (or (or ?v_20 ?v_136) ?v_137)) (or (or ?v_16 ?v_35) ?v_10)) (or (or ?v_135 ?v_96) P27)) (or (or ?v_56 ?v_69) P9)) (or (or ?v_65 ?v_52) P14)) (or (or P10 ?v_127) ?v_17)) (or (or ?v_114 ?v_9) ?v_120)) (or (or P12 ?v_129) ?v_84)) (or (or ?v_58 ?v_103) ?v_98)) (or (or ?v_36 ?v_148) ?v_130)) (or (or ?v_42 ?v_136) ?v_18)) (or (or ?v_7 ?v_8) ?v_124)) (or (or ?v_4 P8) ?v_7)) (or (or ?v_95 ?v_26) P20)) (or (or P11 ?v_60) ?v_140)) (or (or ?v_30 ?v_39) ?v_83)) (or (or ?v_95 ?v_0) ?v_42)) (or (or P20 ?v_110) ?v_17)) (or (or ?v_138 ?v_36) ?v_99)) (or (or P14 ?v_114) ?v_24)) (or (or ?v_118 P15) ?v_45)) (or (or ?v_31 P9) P7)) (or (or P4 ?v_57) ?v_12)) (or (or ?v_145 ?v_45) ?v_135)) (or (or ?v_46 ?v_81) ?v_150)) (or (or ?v_77 P10) P20)) (or (or ?v_89 ?v_125) ?v_137)) (or (or P4 ?v_72) ?v_69)) (or (or ?v_67 ?v_142) ?v_153)) (or (or ?v_85 P6) ?v_77)) (or ?v_154 ?v_78)) (or (or ?v_116 ?v_91) ?v_1)) (or (or ?v_42 ?v_70) ?v_11)) (or (or ?v_147 ?v_20) ?v_18)) (or (or ?v_10 ?v_87) P2)) (or (or ?v_19 ?v_1) ?v_121)) (or (or ?v_36 ?v_111) ?v_151)) (or (or ?v_21 ?v_62) ?v_104)) (or (or ?v_123 ?v_133) ?v_63)) (or (or ?v_77 ?v_113) ?v_130)) (or (or ?v_117 ?v_150) ?v_141)) (or (or ?v_68 ?v_83) P10)) (or (or ?v_119 ?v_129) ?v_90)) (or (or P29 P28) ?v_27)) (or (or ?v_10 ?v_122) ?v_59)) (or (or ?v_65 ?v_58) ?v_86)) (or (or P16 ?v_60) ?v_116)) (or (or ?v_82 ?v_118) ?v_117)) (or (or ?v_36 ?v_57) ?v_81)) (or (or ?v_94 P29) P9)) (or (or ?v_91 ?v_92) ?v_134)) (or (or ?v_108 ?v_1) ?v_19)) (or (or ?v_22 ?v_128) ?v_83)) (or (or ?v_106 ?v_142) ?v_107)) (or (or ?v_111 ?v_112) ?v_113)) (or (or ?v_11 ?v_69) ?v_134)) (or (or P21 ?v_149) ?v_96)) (or (or ?v_94 P7) ?v_113)) (or (or ?v_77 ?v_132) ?v_103)) (or (or ?v_82 ?v_15) ?v_117)) (or (or ?v_24 ?v_138) ?v_16)) (or (or ?v_55 ?v_7) ?v_82)) (or (or ?v_12 ?v_40) ?v_146)) (or (or ?v_131 P20) ?v_136)) (or (or ?v_72 ?v_55) ?v_42)) (or ?v_155 ?v_51)) (or (or ?v_108 P18) ?v_22)) (or (or ?v_4 ?v_46) ?v_100)) (or (or ?v_68 ?v_58) ?v_74)) (or (or ?v_124 ?v_99) ?v_120)) (or (or ?v_30 ?v_60) ?v_100)) (or (or ?v_132 ?v_87) ?v_146)) (or (or ?v_156 ?v_122) ?v_6)) (or (or P13 ?v_156) ?v_15)) (or (or ?v_16 ?v_144) P15)) (or (or P20 ?v_130) ?v_92)) (or (or ?v_87 ?v_0) ?v_2)) (or (or ?v_69 P2) ?v_38)) (or (or ?v_69 ?v_13) ?v_20)) (or (or ?v_76 ?v_140) ?v_99)) (or (or ?v_140 P5) ?v_51)) (or (or ?v_122 P9) ?v_114)) (or (or ?v_98 ?v_100) ?v_106)) (or (or ?v_129 ?v_134) ?v_14)) (or (or P22 P6) ?v_18)) (or (or ?v_12 ?v_110) P24)) (or (or P0 ?v_102) ?v_72))))))))))))))))))))))))))
(check-sat)
(exit)
